(set-logic QF_NRA)
(set-info :source |Benchmarks generated from hycomp (https://es-static.fbk.eu/tools/hycomp/). BMC instances of non-linear hybrid automata taken from: Alessandro Cimatti, Sergio Mover, Stefano Tonetta, A quantifier-free SMT encoding of non-linear hybrid automata, FMCAD 2012 and Alessandro Cimatti, Sergio Mover, Stefano Tonetta, Quantier-free encoding of invariants for Hybrid Systems, Formal Methods in System Design. This instance solves a BMC problem of depth 2 and uses the quantifier free encoding encoding. Contacts: Sergio Mover (mover@fbk.eu), Stefano Tonetta (tonettas@fbk.eu), Alessandro Cimatti (cimatti@fbk.eu).|)
(set-info :smt-lib-version 2.0)
(set-info :category "industrial")
(set-info :status unsat)
;; MathSAT API call trace
;; generated on Mon Mar 19 10:50:44 2012
(declare-fun b.bool_atom__AT2 () Bool)
(declare-fun b.time__AT2 () Real)
(declare-fun b.x__AT2 () Real)
(declare-fun b.y__AT0 () Real)
(declare-fun b.delta__AT2 () Real)
(declare-fun b.EVENT.0__AT2 () Bool)
(declare-fun b.counter.0__AT0 () Bool)
(declare-fun b.EVENT.1__AT2 () Bool)
(declare-fun b.EVENT.0__AT0 () Bool)
(declare-fun b.counter.3__AT0 () Bool)
(declare-fun b.counter.1__AT0 () Bool)
(declare-fun b.event_is_timed__AT1 () Bool)
(declare-fun b.bool_atom__AT1 () Bool)
(declare-fun b.speed_y__AT2 () Real)
(declare-fun b.g__AT0 () Real)
(declare-fun b.speed_y__AT0 () Real)
(declare-fun b.x__AT1 () Real)
(declare-fun b.y__AT1 () Real)
(declare-fun b.counter.2__AT0 () Bool)
(declare-fun b.counter.0__AT1 () Bool)
(declare-fun b.counter.1__AT1 () Bool)
(declare-fun b.counter.2__AT1 () Bool)
(declare-fun b.event_is_timed__AT0 () Bool)
(declare-fun b.counter.3__AT1 () Bool)
(declare-fun b.bool_atom__AT0 () Bool)
(declare-fun b.x__AT0 () Real)
(declare-fun b.counter.0__AT2 () Bool)
(declare-fun b.delta__AT1 () Real)
(declare-fun b.speed_y__AT1 () Real)
(declare-fun b.counter.1__AT2 () Bool)
(declare-fun b.time__AT1 () Real)
(declare-fun b.event_is_timed__AT2 () Bool)
(declare-fun b.EVENT.0__AT1 () Bool)
(declare-fun b.counter.2__AT2 () Bool)
(declare-fun b.time__AT0 () Real)
(declare-fun b.EVENT.1__AT1 () Bool)
(declare-fun b.counter.3__AT2 () Bool)
(declare-fun b.delta__AT0 () Real)
(declare-fun b.EVENT.1__AT0 () Bool)
(declare-fun b.y__AT2 () Real)
(assert (let ((.def_66 (* (- 1.0) b.g__AT0)))
(let ((.def_69 (* (/ 1 2) .def_66)))
(let ((.def_82 (* 2.0 .def_69)))
(let ((.def_88 (* (- 1.0) .def_82)))
(let ((.def_454 (* .def_88 b.delta__AT2)))
(let ((.def_455 (<= b.speed_y__AT2 .def_454)))
(let ((.def_453 (<= b.speed_y__AT2 0.0 )))
(let ((.def_456 (and .def_453 .def_455)))
(let ((.def_449 (* .def_82 b.delta__AT2)))
(let ((.def_450 (+ b.speed_y__AT2 .def_449)))
(let ((.def_451 (<= 0.0 .def_450)))
(let ((.def_448 (<= 0.0 b.speed_y__AT2)))
(let ((.def_452 (and .def_448 .def_451)))
(let ((.def_457 (or .def_452 .def_456)))
(let ((.def_439 (* b.speed_y__AT2 b.delta__AT2)))
(let ((.def_437 (* b.delta__AT2 b.delta__AT2)))
(let ((.def_438 (* .def_69 .def_437)))
(let ((.def_440 (+ .def_438 .def_439)))
(let ((.def_425 (* (- 1.0) b.x__AT2)))
(let ((.def_426 (* b.x__AT2 .def_425)))
(let ((.def_441 (* (- 1.0) .def_426)))
(let ((.def_444 (+ .def_441 .def_440)))
(let ((.def_445 (+ b.y__AT2 .def_444)))
(let ((.def_446 (<= 0.0 .def_445)))
(let ((.def_427 (<= .def_426 b.y__AT2)))
(let ((.def_447 (and .def_427 .def_446)))
(let ((.def_458 (and .def_447 .def_457)))
(let ((.def_58 (<= b.g__AT0 10.0 )))
(let ((.def_57 (<= 8.0 b.g__AT0)))
(let ((.def_59 (and .def_57 .def_58)))
(let ((.def_459 (and .def_59 .def_458)))
(let ((.def_164 (not b.counter.0__AT1)))
(let ((.def_431 (or b.counter.1__AT1 .def_164)))
(let ((.def_159 (not b.counter.2__AT1)))
(let ((.def_432 (or .def_159 .def_431)))
(let ((.def_433 (or b.counter.3__AT1 .def_432)))
(let ((.def_428 (and .def_59 .def_427)))
(let ((.def_422 (not b.EVENT.0__AT2)))
(let ((.def_420 (not b.EVENT.1__AT2)))
(let ((.def_423 (or .def_420 .def_422)))
(let ((.def_334 (not b.counter.1__AT2)))
(let ((.def_4 (not b.counter.0__AT2)))
(let ((.def_413 (or .def_4 .def_334)))
(let ((.def_417 (or b.counter.3__AT2 .def_413)))
(let ((.def_414 (or b.counter.2__AT2 .def_413)))
(let ((.def_8 (not b.counter.2__AT2)))
(let ((.def_412 (or .def_4 .def_8)))
(let ((.def_415 (and .def_412 .def_414)))
(let ((.def_351 (not b.counter.3__AT2)))
(let ((.def_416 (or .def_351 .def_415)))
(let ((.def_418 (and .def_416 .def_417)))
(let ((.def_424 (and .def_418 .def_423)))
(let ((.def_429 (and .def_424 .def_428)))
(let ((.def_407 (<= 0.0 b.delta__AT1)))
(let ((.def_243 (not b.EVENT.0__AT1)))
(let ((.def_241 (not b.EVENT.1__AT1)))
(let ((.def_282 (and .def_241 .def_243)))
(let ((.def_284 (not .def_282)))
(let ((.def_408 (or .def_284 .def_407)))
(let ((.def_409 (or b.EVENT.1__AT1 .def_408)))
(let ((.def_319 (= b.bool_atom__AT1 b.bool_atom__AT2)))
(let ((.def_315 (= b.counter.0__AT2 b.counter.0__AT1)))
(let ((.def_313 (= b.counter.1__AT2 b.counter.1__AT1)))
(let ((.def_311 (= b.counter.2__AT2 b.counter.2__AT1)))
(let ((.def_310 (= b.counter.3__AT2 b.counter.3__AT1)))
(let ((.def_312 (and .def_310 .def_311)))
(let ((.def_314 (and .def_312 .def_313)))
(let ((.def_316 (and .def_314 .def_315)))
(let ((.def_403 (and .def_316 .def_319)))
(let ((.def_404 (or .def_284 .def_403)))
(let ((.def_405 (or b.EVENT.1__AT1 .def_404)))
(let ((.def_392 (* .def_66 b.delta__AT1)))
(let ((.def_393 (* (- 1.0) b.speed_y__AT2)))
(let ((.def_396 (+ .def_393 .def_392)))
(let ((.def_397 (+ b.speed_y__AT1 .def_396)))
(let ((.def_398 (= .def_397 0.0 )))
(let ((.def_383 (* (- 1.0) b.y__AT2)))
(let ((.def_260 (* b.speed_y__AT1 b.delta__AT1)))
(let ((.def_387 (+ .def_260 .def_383)))
(let ((.def_258 (* b.delta__AT1 b.delta__AT1)))
(let ((.def_259 (* .def_69 .def_258)))
(let ((.def_388 (+ .def_259 .def_387)))
(let ((.def_389 (+ b.y__AT1 .def_388)))
(let ((.def_390 (= .def_389 0.0 )))
(let ((.def_302 (= b.x__AT1 b.x__AT2)))
(let ((.def_391 (and .def_302 .def_390)))
(let ((.def_399 (and .def_391 .def_398)))
(let ((.def_400 (or .def_284 .def_399)))
(let ((.def_305 (= b.y__AT1 b.y__AT2)))
(let ((.def_378 (and .def_302 .def_305)))
(let ((.def_308 (= b.speed_y__AT1 b.speed_y__AT2)))
(let ((.def_379 (and .def_308 .def_378)))
(let ((.def_375 (= b.delta__AT1 0.0 )))
(let ((.def_376 (and .def_282 .def_375)))
(let ((.def_377 (not .def_376)))
(let ((.def_380 (or .def_377 .def_379)))
(let ((.def_381 (or b.EVENT.1__AT1 .def_380)))
(let ((.def_368 (and .def_308 .def_316)))
(let ((.def_369 (or b.bool_atom__AT1 .def_368)))
(let ((.def_343 (or .def_4 b.counter.0__AT1)))
(let ((.def_342 (or b.counter.0__AT2 .def_164)))
(let ((.def_344 (and .def_342 .def_343)))
(let ((.def_345 (and .def_334 .def_344)))
(let ((.def_346 (or b.counter.1__AT1 .def_345)))
(let ((.def_154 (not b.counter.1__AT1)))
(let ((.def_341 (or b.counter.1__AT2 .def_154)))
(let ((.def_347 (and .def_341 .def_346)))
(let ((.def_359 (and .def_8 .def_347)))
(let ((.def_360 (or b.counter.2__AT1 .def_359)))
(let ((.def_354 (and .def_164 .def_334)))
(let ((.def_355 (or b.counter.1__AT1 .def_354)))
(let ((.def_356 (and .def_341 .def_355)))
(let ((.def_357 (and b.counter.2__AT2 .def_356)))
(let ((.def_358 (or .def_159 .def_357)))
(let ((.def_361 (and .def_358 .def_360)))
(let ((.def_362 (and b.counter.3__AT2 .def_361)))
(let ((.def_363 (or b.counter.3__AT1 .def_362)))
(let ((.def_348 (and b.counter.2__AT2 .def_347)))
(let ((.def_349 (or b.counter.2__AT1 .def_348)))
(let ((.def_337 (or b.counter.1__AT2 b.counter.1__AT1)))
(let ((.def_335 (and b.counter.0__AT2 .def_334)))
(let ((.def_336 (or .def_154 .def_335)))
(let ((.def_338 (and .def_336 .def_337)))
(let ((.def_339 (and .def_8 .def_338)))
(let ((.def_340 (or .def_159 .def_339)))
(let ((.def_350 (and .def_340 .def_349)))
(let ((.def_352 (and .def_350 .def_351)))
(let ((.def_173 (not b.counter.3__AT1)))
(let ((.def_353 (or .def_173 .def_352)))
(let ((.def_364 (and .def_353 .def_363)))
(let ((.def_331 (* b.speed_y__AT2 b.speed_y__AT2)))
(let ((.def_150 (* b.speed_y__AT1 b.speed_y__AT1)))
(let ((.def_332 (= .def_150 .def_331)))
(let ((.def_329 (+ b.speed_y__AT1 b.speed_y__AT2)))
(let ((.def_330 (= .def_329 0.0 )))
(let ((.def_333 (and .def_330 .def_332)))
(let ((.def_365 (and .def_333 .def_364)))
(let ((.def_328 (not b.bool_atom__AT1)))
(let ((.def_366 (or .def_328 .def_365)))
(let ((.def_269 (<= 0.0 b.speed_y__AT1)))
(let ((.def_325 (not .def_269)))
(let ((.def_246 (* (- 1.0) b.x__AT1)))
(let ((.def_247 (* b.x__AT1 .def_246)))
(let ((.def_324 (= b.y__AT1 .def_247)))
(let ((.def_326 (and .def_324 .def_325)))
(let ((.def_327 (= b.bool_atom__AT1 .def_326)))
(let ((.def_367 (and .def_327 .def_366)))
(let ((.def_370 (and .def_367 .def_369)))
(let ((.def_371 (and .def_302 .def_370)))
(let ((.def_372 (and .def_305 .def_371)))
(let ((.def_373 (or .def_282 .def_372)))
(let ((.def_374 (or b.EVENT.1__AT1 .def_373)))
(let ((.def_382 (and .def_374 .def_381)))
(let ((.def_401 (and .def_382 .def_400)))
(let ((.def_289 (= b.time__AT1 b.time__AT2)))
(let ((.def_303 (and .def_289 .def_302)))
(let ((.def_306 (and .def_303 .def_305)))
(let ((.def_309 (and .def_306 .def_308)))
(let ((.def_317 (and .def_309 .def_316)))
(let ((.def_320 (and .def_317 .def_319)))
(let ((.def_321 (or .def_241 .def_320)))
(let ((.def_292 (* (- 1.0) b.time__AT2)))
(let ((.def_295 (+ b.delta__AT1 .def_292)))
(let ((.def_296 (+ b.time__AT1 .def_295)))
(let ((.def_297 (= .def_296 0.0 )))
(let ((.def_298 (or .def_284 .def_297)))
(let ((.def_299 (or b.EVENT.1__AT1 .def_298)))
(let ((.def_290 (or .def_282 .def_289)))
(let ((.def_291 (or b.EVENT.1__AT1 .def_290)))
(let ((.def_300 (and .def_291 .def_299)))
(let ((.def_322 (and .def_300 .def_321)))
(let ((.def_286 (= .def_284 b.event_is_timed__AT2)))
(let ((.def_283 (= b.event_is_timed__AT1 .def_282)))
(let ((.def_287 (and .def_283 .def_286)))
(let ((.def_323 (and .def_287 .def_322)))
(let ((.def_402 (and .def_323 .def_401)))
(let ((.def_406 (and .def_402 .def_405)))
(let ((.def_410 (and .def_406 .def_409)))
(let ((.def_411 (and .def_241 .def_410)))
(let ((.def_430 (and .def_411 .def_429)))
(let ((.def_434 (and .def_430 .def_433)))
(let ((.def_275 (* .def_88 b.delta__AT1)))
(let ((.def_276 (<= b.speed_y__AT1 .def_275)))
(let ((.def_274 (<= b.speed_y__AT1 0.0 )))
(let ((.def_277 (and .def_274 .def_276)))
(let ((.def_270 (* .def_82 b.delta__AT1)))
(let ((.def_271 (+ b.speed_y__AT1 .def_270)))
(let ((.def_272 (<= 0.0 .def_271)))
(let ((.def_273 (and .def_269 .def_272)))
(let ((.def_278 (or .def_273 .def_277)))
(let ((.def_261 (+ .def_259 .def_260)))
(let ((.def_262 (* (- 1.0) .def_247)))
(let ((.def_265 (+ .def_262 .def_261)))
(let ((.def_266 (+ b.y__AT1 .def_265)))
(let ((.def_267 (<= 0.0 .def_266)))
(let ((.def_248 (<= .def_247 b.y__AT1)))
(let ((.def_268 (and .def_248 .def_267)))
(let ((.def_279 (and .def_268 .def_278)))
(let ((.def_280 (and .def_59 .def_279)))
(let ((.def_28 (not b.counter.0__AT0)))
(let ((.def_252 (or b.counter.1__AT0 .def_28)))
(let ((.def_31 (not b.counter.2__AT0)))
(let ((.def_253 (or .def_31 .def_252)))
(let ((.def_254 (or b.counter.3__AT0 .def_253)))
(let ((.def_249 (and .def_59 .def_248)))
(let ((.def_244 (or .def_241 .def_243)))
(let ((.def_234 (or .def_154 .def_164)))
(let ((.def_238 (or b.counter.3__AT1 .def_234)))
(let ((.def_235 (or b.counter.2__AT1 .def_234)))
(let ((.def_233 (or .def_159 .def_164)))
(let ((.def_236 (and .def_233 .def_235)))
(let ((.def_237 (or .def_173 .def_236)))
(let ((.def_239 (and .def_237 .def_238)))
(let ((.def_245 (and .def_239 .def_244)))
(let ((.def_250 (and .def_245 .def_249)))
(let ((.def_228 (<= 0.0 b.delta__AT0)))
(let ((.def_47 (not b.EVENT.0__AT0)))
(let ((.def_45 (not b.EVENT.1__AT0)))
(let ((.def_96 (and .def_45 .def_47)))
(let ((.def_98 (not .def_96)))
(let ((.def_229 (or .def_98 .def_228)))
(let ((.def_230 (or b.EVENT.1__AT0 .def_229)))
(let ((.def_138 (= b.bool_atom__AT0 b.bool_atom__AT1)))
(let ((.def_133 (= b.counter.0__AT0 b.counter.0__AT1)))
(let ((.def_130 (= b.counter.1__AT0 b.counter.1__AT1)))
(let ((.def_127 (= b.counter.2__AT0 b.counter.2__AT1)))
(let ((.def_125 (= b.counter.3__AT0 b.counter.3__AT1)))
(let ((.def_128 (and .def_125 .def_127)))
(let ((.def_131 (and .def_128 .def_130)))
(let ((.def_134 (and .def_131 .def_133)))
(let ((.def_224 (and .def_134 .def_138)))
(let ((.def_225 (or .def_98 .def_224)))
(let ((.def_226 (or b.EVENT.1__AT0 .def_225)))
(let ((.def_213 (* b.delta__AT0 .def_66)))
(let ((.def_214 (* (- 1.0) b.speed_y__AT1)))
(let ((.def_217 (+ .def_214 .def_213)))
(let ((.def_218 (+ b.speed_y__AT0 .def_217)))
(let ((.def_219 (= .def_218 0.0 )))
(let ((.def_205 (* (- 1.0) b.y__AT1)))
(let ((.def_72 (* b.delta__AT0 b.speed_y__AT0)))
(let ((.def_208 (+ .def_72 .def_205)))
(let ((.def_65 (* b.delta__AT0 b.delta__AT0)))
(let ((.def_70 (* .def_65 .def_69)))
(let ((.def_209 (+ .def_70 .def_208)))
(let ((.def_210 (+ b.y__AT0 .def_209)))
(let ((.def_211 (= .def_210 0.0 )))
(let ((.def_116 (= b.x__AT0 b.x__AT1)))
(let ((.def_212 (and .def_116 .def_211)))
(let ((.def_220 (and .def_212 .def_219)))
(let ((.def_221 (or .def_98 .def_220)))
(let ((.def_119 (= b.y__AT0 b.y__AT1)))
(let ((.def_200 (and .def_116 .def_119)))
(let ((.def_122 (= b.speed_y__AT0 b.speed_y__AT1)))
(let ((.def_201 (and .def_122 .def_200)))
(let ((.def_197 (= b.delta__AT0 0.0 )))
(let ((.def_198 (and .def_96 .def_197)))
(let ((.def_199 (not .def_198)))
(let ((.def_202 (or .def_199 .def_201)))
(let ((.def_203 (or b.EVENT.1__AT0 .def_202)))
(let ((.def_190 (and .def_122 .def_134)))
(let ((.def_191 (or b.bool_atom__AT0 .def_190)))
(let ((.def_165 (or b.counter.0__AT0 .def_164)))
(let ((.def_163 (or .def_28 b.counter.0__AT1)))
(let ((.def_166 (and .def_163 .def_165)))
(let ((.def_167 (and .def_154 .def_166)))
(let ((.def_168 (or b.counter.1__AT0 .def_167)))
(let ((.def_26 (not b.counter.1__AT0)))
(let ((.def_162 (or .def_26 b.counter.1__AT1)))
(let ((.def_169 (and .def_162 .def_168)))
(let ((.def_181 (and .def_159 .def_169)))
(let ((.def_182 (or b.counter.2__AT0 .def_181)))
(let ((.def_176 (and .def_28 .def_154)))
(let ((.def_177 (or b.counter.1__AT0 .def_176)))
(let ((.def_178 (and .def_162 .def_177)))
(let ((.def_179 (and b.counter.2__AT1 .def_178)))
(let ((.def_180 (or .def_31 .def_179)))
(let ((.def_183 (and .def_180 .def_182)))
(let ((.def_184 (and b.counter.3__AT1 .def_183)))
(let ((.def_185 (or b.counter.3__AT0 .def_184)))
(let ((.def_170 (and b.counter.2__AT1 .def_169)))
(let ((.def_171 (or b.counter.2__AT0 .def_170)))
(let ((.def_157 (or b.counter.1__AT0 b.counter.1__AT1)))
(let ((.def_155 (and b.counter.0__AT1 .def_154)))
(let ((.def_156 (or .def_26 .def_155)))
(let ((.def_158 (and .def_156 .def_157)))
(let ((.def_160 (and .def_158 .def_159)))
(let ((.def_161 (or .def_31 .def_160)))
(let ((.def_172 (and .def_161 .def_171)))
(let ((.def_174 (and .def_172 .def_173)))
(let ((.def_34 (not b.counter.3__AT0)))
(let ((.def_175 (or .def_34 .def_174)))
(let ((.def_186 (and .def_175 .def_185)))
(let ((.def_151 (* b.speed_y__AT0 b.speed_y__AT0)))
(let ((.def_152 (= .def_150 .def_151)))
(let ((.def_148 (+ b.speed_y__AT0 b.speed_y__AT1)))
(let ((.def_149 (= .def_148 0.0 )))
(let ((.def_153 (and .def_149 .def_152)))
(let ((.def_187 (and .def_153 .def_186)))
(let ((.def_147 (not b.bool_atom__AT0)))
(let ((.def_188 (or .def_147 .def_187)))
(let ((.def_81 (<= 0.0 b.speed_y__AT0)))
(let ((.def_144 (not .def_81)))
(let ((.def_52 (* (- 1.0) b.x__AT0)))
(let ((.def_53 (* b.x__AT0 .def_52)))
(let ((.def_143 (= b.y__AT0 .def_53)))
(let ((.def_145 (and .def_143 .def_144)))
(let ((.def_146 (= b.bool_atom__AT0 .def_145)))
(let ((.def_189 (and .def_146 .def_188)))
(let ((.def_192 (and .def_189 .def_191)))
(let ((.def_193 (and .def_116 .def_192)))
(let ((.def_194 (and .def_119 .def_193)))
(let ((.def_195 (or .def_96 .def_194)))
(let ((.def_196 (or b.EVENT.1__AT0 .def_195)))
(let ((.def_204 (and .def_196 .def_203)))
(let ((.def_222 (and .def_204 .def_221)))
(let ((.def_103 (= b.time__AT0 b.time__AT1)))
(let ((.def_117 (and .def_103 .def_116)))
(let ((.def_120 (and .def_117 .def_119)))
(let ((.def_123 (and .def_120 .def_122)))
(let ((.def_135 (and .def_123 .def_134)))
(let ((.def_139 (and .def_135 .def_138)))
(let ((.def_140 (or .def_45 .def_139)))
(let ((.def_106 (* (- 1.0) b.time__AT1)))
(let ((.def_109 (+ b.delta__AT0 .def_106)))
(let ((.def_110 (+ b.time__AT0 .def_109)))
(let ((.def_111 (= .def_110 0.0 )))
(let ((.def_112 (or .def_98 .def_111)))
(let ((.def_113 (or b.EVENT.1__AT0 .def_112)))
(let ((.def_104 (or .def_96 .def_103)))
(let ((.def_105 (or b.EVENT.1__AT0 .def_104)))
(let ((.def_114 (and .def_105 .def_113)))
(let ((.def_141 (and .def_114 .def_140)))
(let ((.def_100 (= .def_98 b.event_is_timed__AT1)))
(let ((.def_97 (= b.event_is_timed__AT0 .def_96)))
(let ((.def_101 (and .def_97 .def_100)))
(let ((.def_142 (and .def_101 .def_141)))
(let ((.def_223 (and .def_142 .def_222)))
(let ((.def_227 (and .def_223 .def_226)))
(let ((.def_231 (and .def_227 .def_230)))
(let ((.def_232 (and .def_45 .def_231)))
(let ((.def_251 (and .def_232 .def_250)))
(let ((.def_255 (and .def_251 .def_254)))
(let ((.def_89 (* b.delta__AT0 .def_88)))
(let ((.def_90 (<= b.speed_y__AT0 .def_89)))
(let ((.def_87 (<= b.speed_y__AT0 0.0 )))
(let ((.def_91 (and .def_87 .def_90)))
(let ((.def_83 (* b.delta__AT0 .def_82)))
(let ((.def_84 (+ b.speed_y__AT0 .def_83)))
(let ((.def_85 (<= 0.0 .def_84)))
(let ((.def_86 (and .def_81 .def_85)))
(let ((.def_92 (or .def_86 .def_91)))
(let ((.def_73 (+ .def_70 .def_72)))
(let ((.def_74 (* (- 1.0) .def_53)))
(let ((.def_77 (+ .def_74 .def_73)))
(let ((.def_78 (+ b.y__AT0 .def_77)))
(let ((.def_79 (<= 0.0 .def_78)))
(let ((.def_54 (<= .def_53 b.y__AT0)))
(let ((.def_80 (and .def_54 .def_79)))
(let ((.def_93 (and .def_80 .def_92)))
(let ((.def_94 (and .def_59 .def_93)))
(let ((.def_60 (and .def_54 .def_59)))
(let ((.def_48 (or .def_45 .def_47)))
(let ((.def_38 (or .def_26 .def_28)))
(let ((.def_42 (or b.counter.3__AT0 .def_38)))
(let ((.def_39 (or b.counter.2__AT0 .def_38)))
(let ((.def_37 (or .def_28 .def_31)))
(let ((.def_40 (and .def_37 .def_39)))
(let ((.def_41 (or .def_34 .def_40)))
(let ((.def_43 (and .def_41 .def_42)))
(let ((.def_49 (and .def_43 .def_48)))
(let ((.def_61 (and .def_49 .def_60)))
(let ((.def_29 (and .def_26 .def_28)))
(let ((.def_32 (and .def_29 .def_31)))
(let ((.def_35 (and .def_32 .def_34)))
(let ((.def_23 (= b.y__AT0 10.0 )))
(let ((.def_19 (= b.x__AT0 0.0 )))
(let ((.def_15 (= b.time__AT0 0.0 )))
(let ((.def_17 (and .def_15 b.event_is_timed__AT0)))
(let ((.def_20 (and .def_17 .def_19)))
(let ((.def_24 (and .def_20 .def_23)))
(let ((.def_36 (and .def_24 .def_35)))
(let ((.def_62 (and .def_36 .def_61)))
(let ((.def_6 (or .def_4 b.counter.1__AT2)))
(let ((.def_9 (or .def_6 .def_8)))
(let ((.def_11 (or .def_9 b.counter.3__AT2)))
(let ((.def_12 (not .def_11)))
(let ((.def_63 (and .def_12 .def_62)))
(let ((.def_95 (and .def_63 .def_94)))
(let ((.def_256 (and .def_95 .def_255)))
(let ((.def_281 (and .def_256 .def_280)))
(let ((.def_435 (and .def_281 .def_434)))
(let ((.def_460 (and .def_435 .def_459)))
.def_460)))))))))))))))))))))))))))))))))))))))))))))))))))))))))))))))))))))))))))))))))))))))))))))))))))))))))))))))))))))))))))))))))))))))))))))))))))))))))))))))))))))))))))))))))))))))))))))))))))))))))))))))))))))))))))))))))))))))))))))))))))))))))))))))))))))))))))))))))))))))))))))))))))))))))))))))))))))))))))))))))))))))))))))))))))))))))))))))))))))))))))))))))))))))))))))))))))))))))
(check-sat)
(exit)
